c --- [ banner ] -------------------------------------------------------------
c 
c CaDiCaL Radically Simplified CDCL SAT Solver
c Copyright (c) 2016-2021 A. Biere, M. Fleury, N. Froleyks
c 
c Version 1.5.2 a5f15211db36c3956764e18194dd5bd63bf3b5e6
c g++ (GCC) 9.3.0 -Wall -Wextra -O3 -DNDEBUG
c Fri Oct 21 01:27:37 EDT 2022 Linux gra-login3 3.10.0-1160.66.1.el7.x86_64 x86_64
c 
c --- [ limit ] --------------------------------------------------------------
c 
c setting conflict limit to 200000 conflicts (due to '200000')
c 
c --- [ parsing input ] ------------------------------------------------------
c 
c reading DIMACS file from '33.cubes1302.adj'
c opening file to read '33.cubes1302.adj'
c found 'p cnf 6160 1595480' header
c parsed 1595480 clauses in 19.78 seconds process time
c closing file '33.cubes1302.adj'
c after reading 1457566810 bytes 1390.0 MB
c 
c --- [ options ] ------------------------------------------------------------
c 
c all options are set to their default value
c 
c --- [ solving ] ------------------------------------------------------------
c 
c time measured in process time since initialization
c 
c  seconds    reductions  redundant   irredundant
c          MB     restarts       trail       variables
c            level   conflicts       glue         remaining
c 
c * 19.78 1367  0 0   0    0    0  0% 0 1595422 2375 39%
c { 20.48 1402  0 0   0    0    0  0% 0 1595422 2375 39%
c i 20.83 1421 1112 0   0   11   10 37% 1 1595422 2362 38%
c i 22.58 1471 695 0   4   44   36 31% 3 1595422 2360 38%
c i 22.69 1472 636 0   4   48   39 29% 3 1595422 2350 38%
c i 22.70 1472 623 0   4   49   39 29% 3 1595422 2332 38%
c i 23.26 1480 519 0   5   62   47 29% 10 1595422 2322 38%
c i 25.42 1498 246 0  25  164  129 28% 24 1595422 2321 38%
c i 25.82 1500 212 0  30  203  162 28% 26 1595422 2320 38%
c i 26.18 1502 202 0  35  231  183 28% 25 1595422 2316 38%
c i 26.19 1502 200 0  35  238  189 28% 25 1595422 2315 38%
c i 26.35 1502 196 0  36  254  202 28% 26 1595422 2314 38%
c i 26.43 1502 191 0  37  263  210 28% 26 1595422 2313 38%
c i 26.49 1502 184 0  37  275  219 28% 25 1595422 2312 38%
c i 26.50 1502 184 0  37  276  219 28% 25 1595422 2311 38%
c - 30.62 1451 177 1  41  302  238 28% 29 276108 2311 38%
c i 30.88 1452 170 1  45  319  253 28% 29 276108 2298 37%
c i 31.97 1452 148 1  63  430  359 27% 31 276108 2296 37%
c i 32.04 1452 147 1  65  442  368 27% 30 276108 2295 37%
c i 32.04 1452 147 1  65  443  368 27% 30 276108 2294 37%
c 
c  seconds     reductions  redundant   irredundant
c          MB      restarts       trail       variables
c             level   conflicts       glue         remaining
c 
c i 32.04 1452 146 1  66  445  369 27% 30 276108 2293 37%
c i 32.10 1452 146 1  66  446  369 27% 30 276108 2292 37%
c i 32.30 1452 142 1  67  474  396 27% 30 276108 2291 37%
c i 32.41 1452 139 1  68  485  406 27% 30 276108 2290 37%
c i 32.55 1452 126 1  68  555  461 28% 29 276108 2289 37%
c i 32.58 1452 125 1  68  562  467 28% 29 276108 2288 37%
c i 32.59 1452 124 1  68  570  474 27% 29 276108 2287 37%
c i 32.60 1452 124 1  68  572  475 28% 29 276108 2286 37%
c i 32.62 1452 123 1  68  578  477 28% 29 276108 2285 37%
c i 32.68 1452 123 1  68  597  491 28% 28 276108 2284 37%
c i 32.68 1452 123 1  68  600  493 28% 28 276108 2283 37%
c i 32.69 1452 122 1  68  604  496 28% 28 276108 2282 37%
c i 32.69 1452 122 1  68  609  500 28% 29 276108 2281 37%
c i 32.77 1452 119 1  72  657  541 28% 29 276108 2280 37%
c i 32.79 1452 119 1  72  665  547 28% 29 276108 2279 37%
c i 32.79 1452 118 1  72  666  547 28% 29 276108 2278 37%
c i 32.79 1452 118 1  72  667  547 28% 29 276108 2277 37%
c i 32.80 1452 118 1  72  669  547 28% 29 276108 2276 37%
c i 32.80 1452 118 1  72  671  548 28% 29 276108 2275 37%
c i 32.80 1452 117 1  72  674  550 28% 29 276108 2274 37%
c 
c  seconds     reductions  redundant   irredundant
c          MB      restarts       trail       variables
c             level   conflicts       glue         remaining
c 
c i 32.80 1452 117 1  72  675  550 28% 29 276108 2273 37%
c i 32.80 1452 117 1  72  676  550 28% 29 276108 2272 37%
c i 33.00 1452 111 1  76  761  617 28% 28 276108 2271 37%
c i 33.01 1452 110 1  76  771  626 28% 28 276108 2270 37%
c i 33.02 1452 110 1  76  772  626 28% 28 276108 2269 37%
c i 33.52 1452 108 1  90  842  690 28% 29 276108 2268 37%
c i 33.54 1452 108 1  90  845  692 28% 29 276108 2267 37%
c i 33.54 1452 107 1  90  846  692 28% 29 276108 2266 37%
c i 33.57 1452 107 1  90  850  695 28% 29 276108 2265 37%
c i 33.71 1452 105 1  91  877  717 28% 29 276108 2264 37%
c i 33.72 1452 105 1  91  880  719 28% 29 276108 2263 37%
c i 33.72 1452 105 1  91  881  719 28% 29 276108 2262 37%
c i 33.76 1452 104 1  91  898  734 28% 29 276108 2261 37%
c i 33.79 1452 103 1  91  907  742 28% 29 276108 2260 37%
c i 33.91 1452 101 1  94  948  773 28% 29 276108 2259 37%
c i 33.91 1452 101 1  94  949  773 28% 29 276108 2258 37%
c } 34.11 1452 99 1 102 1000  810 28% 30 276108 2258 37%
c [ 34.11 1452  0 1 102 1000  810  0% 0 276108 2258 37%
c O 34.12 1452 39 1 102 1002  812 19% 3 276108 2258 37%
c i 34.23 1452 13 1 102 1022  831 21% 3 276108 2257 37%
c 
c  seconds    reductions  redundant   irredundant
c          MB     restarts       trail       variables
c            level   conflicts       glue         remaining
c 
c i 34.34 1452 20 1 102 1049  855 26% 10 276108 2256 37%
c i 34.38 1452 21 1 102 1054  859 27% 10 276108 2255 37%
c i 34.39 1452 21 1 102 1063  867 28% 11 276108 2254 37%
c i 34.39 1452 21 1 102 1065  868 28% 11 276108 2253 37%
c i 34.40 1452 21 1 102 1068  869 28% 12 276108 2252 37%
c i 34.44 1452 22 1 102 1112  893 29% 15 276108 2251 37%
c i 34.45 1452 22 1 102 1114  894 29% 15 276108 2250 37%
c i 34.46 1452 21 1 102 1132  905 30% 15 276108 2249 37%
c i 34.46 1452 21 1 102 1134  906 30% 15 276108 2248 36%
c i 34.47 1452 21 1 102 1143  913 30% 15 276108 2247 36%
c i 34.48 1452 20 1 102 1153  922 30% 14 276108 2246 36%
c - 34.99 1560 20 2 102 1167  817 30% 14 275729 2246 36%
c i 35.15 1560 26 2 102 1311  912 31% 20 275729 2245 36%
c i 35.19 1560 26 2 102 1444  984 31% 21 275729 2244 36%
c i 35.20 1560 26 2 102 1473 1003 31% 21 275729 2243 36%
c i 35.21 1560 26 2 102 1509 1022 31% 21 275729 2242 36%
c i 35.30 1560 26 2 102 1754 1177 31% 22 275729 2241 36%
c i 35.34 1560 27 2 102 1900 1268 31% 22 275729 2240 36%
c - 35.89 1559 28 3 103 2465 1236 31% 24 275711 2240 36%
c ] 36.26 1559 29 3 103 3002 1550 47% 25 275711 2240 36%
c 
c  seconds    reductions  redundant   irredundant
c          MB     restarts       trail       variables
c            level   conflicts       glue         remaining
c 
c { 36.26 1559 99 3 103 3002 1550 77% 30 275711 2240 36%
c F 36.28 1559 99 3 104 3003 1551 77% 30 275711 2240 36%
c - 37.29 1452 57 4 144 4193 1796 61% 22 275711 2240 36%
c i 37.52 1452 58 4 157 4261 1860 60% 23 275711 2239 36%
c i 37.81 1452 59 4 167 4315 1910 60% 23 275711 2238 36%
c i 38.40 1452 59 4 192 4435 2006 59% 23 275711 2237 36%
c i 38.63 1452 57 4 192 4622 2163 58% 23 275711 2236 36%
c i 38.75 1452 57 4 195 4636 2175 58% 23 275711 2235 36%
c i 38.89 1452 58 4 201 4657 2192 58% 24 275711 2234 36%
c i 39.58 1452 57 4 224 4870 2394 57% 24 275711 2233 36%
c d 40.35 1453 57 4 241 5001 2506 56% 24 260431 2224 36%
c 2 40.41 1453 57 4 241 5001 3090 56% 24 260419 2221 36%
c p 45.82 1453 57 4 241 5001 5394 56% 24 260419 2179 35%
c d 46.19 1453 57 4 241 5001 5336 56% 24 260056 2177 35%
c d 46.32 1453 57 4 241 5001 5332 56% 24 260054 2176 35%
c # 47.58 1453 49 4 258 6008 6108 54% 23 260054 2176 35%
c - 48.06 1484 48 5 258 6355 2659 54% 22 260054 2176 35%
c } 48.30 1484 44 5 258 7004 3139 53% 22 260054 2176 35%
c [ 48.30 1484 29 5 258 7004 3139 47% 25 260054 2176 35%
c - 49.14 1388 29 6 259 8903 3259 50% 25 260054 2176 35%
c 
c  seconds    reductions   redundant   irredundant
c          MB     restarts        trail       variables
c            level    conflicts       glue         remaining
c 
c I 49.73 1388 30 6 260 10013 4088 50% 25 260054 2176 35%
c - 52.26 1388 35 7 262 11875 3798 50% 29 260054 2176 35%
c 2 55.54 1388 38 7 263 15001 6887 49% 32 260052 2176 35%
c p 56.51 1388 38 7 263 15001 9462 49% 32 260052 2176 35%
c ] 56.60 1388 38 7 263 15006 9467 49% 32 260052 2176 35%
c { 56.60 1388 44 7 263 15006 9467 53% 22 260052 2176 35%
c B 56.68 1388 44 7 263 15021 9480 53% 22 260052 2176 35%
c - 58.22 1388 45 8 322 15272 4467 52% 23 260052 2176 35%
c s 66.14 1388 43 8 596 18784 7280 49% 23 258229 2176 35%
c v 69.76 1388 43 8 596 18784 7280 49% 23 258193 2176 35%
c t 69.87 1388 43 8 596 18784 7243 49% 23 258184 2176 35%
c e 70.71 1389 43 8 596 18784 6812 49% 23 255425 783 13%
c s 70.82 1389 43 8 596 18784 6812 49% 23 255223 783 13%
c - 72.57 1389 43 9 644 19092 5079 72% 24 255223 783 13%
c W 77.20 1389 42 9 816 21028 6559 73% 23 255223 783 13%
c - 80.60 1389 41 10 910 23314 5552 74% 23 255223 783 13%
c - 86.45 1389 37 11 1077 27956 6383 74% 22 255223 783 13%
c F 86.53 1389 37 11 1077 28029 6431 74% 22 255223 783 13%
c 3 88.24 1389 36 11 1118 30002 8372 74% 22 255222 783 13%
c p 91.29 1389 36 11 1118 30002 10326 74% 22 255222 773 13%
c 
c  seconds    reductions      redundant   irredundant
c          MB      restarts          trail       variables
c            level      conflicts        glue        remaining
c 
c d 91.60 1389 36 11 1118 30002 10160 74% 22 255047 772 13%
c d 91.73 1389 36 11 1118 30002 10159 74% 22 255037 771 13%
c } 92.13 1389 35 11 1118 31007 10726 74% 21 255037 771 13%
c [ 92.13 1389 38 11 1118 31007 10726 141% 32 255037 771 13%
c - 93.12 1389 35 12 1118 33020 6695 128% 29 255037 771 13%
c B 94.35 1389 33 12 1121 36031 8411 115% 27 255037 771 13%
c - 95.32 1389 37 13 1122 38505 7086 109% 30 255037 771 13%
c - 97.30 1389 36 14 1125 44412 7338 99% 30 255037 771 13%
c W 98.89 1389 36 14 1125 45035 7735 99% 30 255037 771 13%
c 2 101.22 1389 33 14 1126 50005 11396 94% 28 255035 771 13%
c p 102.30 1389 33 14 1126 50005 13190 94% 28 255035 771 13%
c - 103.16 1389 33 15 1126 50742 8043 94% 28 255035 771 13%
c s 104.14 1389 33 15 1126 52182 9047 93% 28 254716 771 13%
c v 107.32 1389 33 15 1126 52182 9047 93% 28 254669 771 13%
c t 107.40 1389 33 15 1126 52182 9030 93% 28 254668 771 13%
c e 108.21 1389 33 15 1126 52182 8995 93% 28 254623 749 12%
c s 108.36 1389 33 15 1126 52182 8995 93% 28 254307 749 12%
c O 111.64 1389 32 15 1127 55036 10843 91% 27 254307 749 12%
c - 113.17 1389 31 16 1129 57498 8791 90% 27 254307 749 12%
c ] 113.36 1389 31 16 1129 57827 8982 89% 27 254307 749 12%
c 
c  seconds     reductions     redundant   irredundant
c           MB      restarts         trail       variables
c             level      conflicts       glue        remaining
c 
c 1 113.36 1389 31 16 1129 57827 8982 89% 27 254307 749 12%
c 
c --- [ writing output ] -----------------------------------------------------
c 
c writing simplified CNF to DIMACS file 'simp/33.cubes1302.adj.simp1'
c * 113.36 1389 31 16 1129 57827 8982 89% 27 254307 749 12%
c opening file to write 'simp/33.cubes1302.adj.simp1'
c writing 'p cnf 6160 254307' header
c closing file 'simp/33.cubes1302.adj.simp1'
c after writing 106688630 bytes 101.7 MB
c wrote 254307 clauses in 0.73 seconds process time
c 
c --- [ writing extension ] --------------------------------------------------
c 
c writing extension stack to 'simp/33.cubes1302.adj.ext1'
c opening file to write 'simp/33.cubes1302.adj.ext1'
c closing file 'simp/33.cubes1302.adj.ext1'
c after writing 92718 bytes 0.1 MB
c wrote 4134 witnesses in 0.00 seconds process time
c 
c --- [ result ] -------------------------------------------------------------
c 
s SATISFIABLE
c 
c --- [ run-time profiling ] -------------------------------------------------
c 
c process time taken by individual solving procedures
c (percentage relative to process time for solving)
c 
c        70.93   75.80% search
c        45.44   48.55% unstable
c        23.08   24.66% stable
c        22.65   24.20% simplify
c        19.78   21.13% parse
c        10.46   11.17% probe
c         6.94    7.41% vivify
c         3.09    3.30% elim
c         1.71    1.83% walk
c         0.70    0.75% lucky
c         0.53    0.56% subsume
c         0.14    0.15% ternary
c   =================================
c        93.58   82.02% solve
c 
c last line shows process time for solving
c (percentage relative to total process time)
c 
c --- [ statistics ] ---------------------------------------------------------
c 
c chronological:             10525        18.20 %  of conflicts
c conflicts:                 57827       617.93    per second
c decisions:                149406      1596.53    per second
c eliminated:                 1415        22.97 %  of all variables
c fixed:                       838        13.60 %  of all variables
c learned:                   56680        98.02 %  per conflict
c learned_lits:           11041899       100.00 %  learned literals
c minimized:                     0         0.00 %  learned literals
c shrunken:                6336880        57.39 %  learned literals
c minishrunken:             959483         8.69 %  learned literals
c propagations:            5346686         0.06 M  per second
c reduced:                   30322        52.44 %  per conflict
c rephased:                     10      5782.70    interval
c restarts:                   1129        51.22    interval
c stabilizing:                   3        63.68 %  of conflicts
c substituted:                  14         0.23 %  of all variables
c subsumed:                  19654         0.56 %  of all clauses
c strengthened:               7942         0.23 %  of all clauses
c ternary:                    2350         0.66 %  of resolved
c vivified:                    104         0.00 %  of all clauses
c walked:                        2     28913.50    interval
c weakened:                   3296         3.00    average size
c 
c seconds are measured in process time for solving
c 
c --- [ resources ] ----------------------------------------------------------
c 
c total process time since initialization:       114.10    seconds
c total real time since initialization:          117.68    seconds
c maximum resident set size of process:         1667.72    MB
c 
c --- [ shutting down ] ------------------------------------------------------
c 
c exit 10
WARNING! DIMACS header mismatch: wrong number of variables.
============================[ Problem Statistics ]=============================
|                                                                             |
|  Number of variables:          3023                                         |
|  Number of clauses:          254313                                         |
|  Parse time:                   1.35 s                                       |
|  Simplification time:          0.03 s                                       |
|                                                                             |
============================[ Search Statistics ]====================================================
| Conflicts |          ORIGINAL         |          LEARNT          | Num Sols |      SUBGRAPHS      |
|           |    Vars  Clauses Literals |    Limit  Clauses Lit/Cl |          | Canonical Noncanon. |
=====================================================================================================
|       128 |    2930   254341 23334941 |     2000      128     79 |        0 |        31        28 |
|       279 |    2930   254342 23334964 |     2000      279     98 |        0 |        31        29 |
|       826 |    2930   254664 23340561 |     2000      826     59 |        0 |       103       351 |
|      3324 |    2930   256825 23376214 |     3603     2327     14 |        0 |       646      2512 |
|      5604 |    2930   258599 23404282 |     5002     2806     19 |        0 |       947      4286 |
|      8982 |    2930   261218 23449116 |     6303     3685     14 |        0 |      1272      6905 |
|     14568 |    2930   265665 23518581 |     7560     6128     22 |        0 |      2042     11352 |
|     21501 |    2930   270890 23604043 |     9996     4897     12 |        0 |      3116     16577 |
|     34730 |    2930   281557 23779658 |    12406     7536     13 |        0 |      4845     27244 |
|     40607 |    2930   283590 23814844 |    13608     7215     18 |        0 |      5230     29277 |
|     75066 |    2930   312283 24236496 |    18407    10873     11 |        0 |      7920     57970 |
|    122278 |    2930   350846 24750499 |    23212    17690     19 |        0 |      9616     96533 |
|    183129 |    2930   398723 25367693 |    29211    14540      9 |        0 |     11975    144410 |
=====================================================================================================
Number of solutions   : 0
Canonical subgraphs   : 13034          (60 /sec)
          order  3    : 1              (166667 /sec)
          order  4    : 1              (500000 /sec)
          order  5    : 1              (200000 /sec)
          order  6    : 1              (52632 /sec)
          order  7    : 2              (9950 /sec)
          order  8    : 4              (2082 /sec)
          order  9    : 9              (433 /sec)
          order 10    : 38             (129 /sec)
          order 11    : 158            (67 /sec)
          order 12    : 875            (52 /sec)
          order 13    : 10019          (75 /sec)
          order 14    : 1144           (36 /sec)
          order 15    : 414            (30 /sec)
          order 16    : 213            (22 /sec)
          order 17    : 102            (15 /sec)
          order 18    : 40             (13 /sec)
          order 19    : 12             (11 /sec)
          order 20    : 0              (-nan /sec)
          order 21    : 0              (-nan /sec)
          order 22    : 0              (-nan /sec)
Noncanonical subgraphs: 167475         (473 /sec)
          order  3    : 0              (-nan /sec)
          order  4    : 0              (-nan /sec)
          order  5    : 0              (-nan /sec)
          order  6    : 0              (-nan /sec)
          order  7    : 0              (-nan /sec)
          order  8    : 0              (-nan /sec)
          order  9    : 0              (-nan /sec)
          order 10    : 0              (-nan /sec)
          order 11    : 0              (-nan /sec)
          order 12    : 0              (-nan /sec)
          order 13    : 27309          (2592 /sec)
          order 14    : 135579         (416 /sec)
          order 15    : 3005           (271 /sec)
          order 16    : 1438           (329 /sec)
          order 17    : 144            (74 /sec)
          order 18    : 0              (-nan /sec)
          order 19    : 0              (-nan /sec)
          order 20    : 0              (-nan /sec)
          order 21    : 0              (-nan /sec)
Canonicity checking   : 219.014 s
Noncanonicity checking: 354.24 s
Total canonicity time : 573.253 s
database reductions   : 24
restarts              : 511
conflicts             : 214837         (347 /sec)
decisions             : 432174         (0.00 % random) (698 /sec)
propagations          : 9928992        (16040 /sec)
conflict literals     : 5441355        (55.46 % deleted)
actual reward         : 0.117639
Memory used           : 163.00 MB
CPU time              : 619.001 s

UNSATISFIABLE
